Geographic Exponential Decay
20 254 135 192 3 56 144 12 93 49 193 132 119 248 55 246 205 166 38 284 75
p edge 320 635
e 0 174 1.0
e 1 33 1.0
e 1 51 5.0
e 2 80 3.0
e 2 138 4.0
e 3 132 30.0
e 3 248 55.0
e 3 149 24.0
e 3 280 25.0
e 3 136 57.0
e 3 126 19.0
e 3 70 5.0
e 3 171 1.0
e 3 279 85.0
e 3 94 98.0
e 3 152 72.0
e 3 30 58.0
e 3 100 17.0
e 3 258 24.0
e 3 135 23.0
e 3 31 99.0
e 3 80 72.0
e 4 172 10.0
e 4 309 9.0
e 4 5 21.0
e 4 123 2.0
e 4 206 4.0
e 6 9 1.0
e 7 119 17.0
e 8 84 1.0
e 9 281 6.0
e 10 291 1.0
e 11 79 49.0
e 11 94 32.0
e 11 228 3.0
e 11 48 47.0
e 11 287 44.0
e 11 235 37.0
e 11 313 15.0
e 11 80 11.0
e 11 281 28.0
e 12 75 92.0
e 12 40 14.0
e 12 258 36.0
e 12 289 77.0
e 12 133 56.0
e 12 283 12.0
e 12 51 8.0
e 12 242 94.0
e 12 241 14.0
e 12 19 75.0
e 12 126 58.0
e 12 230 48.0
e 12 275 41.0
e 12 119 1.0
e 12 288 66.0
e 12 144 46.0
e 12 48 22.0
e 13 230 2.0
e 14 131 12.0
e 15 172 1.0
e 15 250 3.0
e 16 291 4.0
e 17 38 80.0
e 18 78 11.0
e 18 182 8.0
e 18 32 2.0
e 19 27 6.0
e 20 153 3.0
e 20 132 98.0
e 21 20 5.0
e 22 48 3.0
e 22 17 4.0
e 23 175 20.0
e 23 49 88.0
e 23 258 9.0
e 23 259 22.0
e 23 166 11.0
e 24 153 4.0
e 24 224 11.0
e 24 147 4.0
e 25 64 1.0
e 26 119 15.0
e 26 280 5.0
e 28 86 1.0
e 29 175 2.0
e 31 142 25.0
e 31 241 5.0
e 34 253 2.0
e 35 274 5.0
e 35 248 69.0
e 36 218 1.0
e 37 276 2.0
e 38 79 90.0
e 38 299 22.0
e 38 295 95.0
e 38 260 51.0
e 38 11 17.0
e 38 50 91.0
e 38 186 8.0
e 38 245 21.0
e 38 87 63.0
e 38 48 76.0
e 38 251 7.0
e 38 148 47.0
e 38 1 57.0
e 38 266 25.0
e 38 189 57.0
e 38 246 1.0
e 39 221 11.0
e 39 283 6.0
e 41 256 2.0
e 42 245 3.0
e 43 79 5.0
e 44 145 4.0
e 45 212 2.0
e 46 152 2.0
e 47 188 2.0
e 49 268 44.0
e 49 172 82.0
e 49 50 21.0
e 49 183 63.0
e 49 286 72.0
e 49 127 94.0
e 49 76 92.0
e 49 160 27.0
e 49 129 10.0
e 49 307 5.0
e 49 267 50.0
e 49 98 59.0
e 49 287 32.0
e 49 8 60.0
e 49 51 72.0
e 49 213 5.0
e 52 155 1.0
e 53 1 2.0
e 53 291 3.0
e 53 306 7.0
e 53 190 6.0
e 53 248 20.0
e 54 45 1.0
e 55 115 67.0
e 55 281 64.0
e 55 317 96.0
e 55 224 83.0
e 55 229 51.0
e 55 177 22.0
e 55 16 57.0
e 55 313 8.0
e 55 99 76.0
e 55 293 54.0
e 55 31 10.0
e 55 304 28.0
e 55 75 76.0
e 55 267 18.0
e 55 35 94.0
e 55 131 38.0
e 55 132 54.0
e 56 311 75.0
e 56 114 47.0
e 56 192 96.0
e 56 157 59.0
e 56 156 6.0
e 56 49 42.0
e 56 51 65.0
e 56 175 70.0
e 56 126 23.0
e 56 297 25.0
e 56 138 45.0
e 56 179 75.0
e 56 258 46.0
e 56 309 61.0
e 56 6 60.0
e 56 233 89.0
e 56 102 3.0
e 57 120 3.0
e 58 307 1.0
e 59 206 2.0
e 59 41 1.0
e 60 241 1.0
e 61 120 7.0
e 62 252 22.0
e 63 61 1.0
e 64 109 9.0
e 64 82 8.0
e 65 123 1.0
e 66 54 3.0
e 67 99 1.0
e 67 125 1.0
e 67 77 1.0
e 68 189 9.0
e 68 209 1.0
e 68 121 3.0
e 69 15 1.0
e 71 271 2.0
e 72 43 1.0
e 73 136 43.0
e 73 78 19.0
e 73 119 58.0
e 73 305 15.0
e 73 21 16.0
e 74 253 2.0
e 75 271 54.0
e 75 198 31.0
e 75 239 46.0
e 75 27 63.0
e 75 259 27.0
e 75 288 78.0
e 75 9 39.0
e 75 54 54.0
e 75 249 98.0
e 75 15 56.0
e 75 135 90.0
e 75 257 59.0
e 75 199 68.0
e 75 226 42.0
e 75 96 55.0
e 76 11 28.0
e 76 316 6.0
e 81 220 3.0
e 83 1 2.0
e 84 95 9.0
e 85 300 1.0
e 86 7 3.0
e 86 125 10.0
e 88 141 1.0
e 88 153 1.0
e 89 80 7.0
e 90 60 1.0
e 91 115 7.0
e 91 55 49.0
e 91 18 1.0
e 92 135 55.0
e 92 239 6.0
e 92 15 6.0
e 93 183 76.0
e 93 257 71.0
e 93 310 86.0
e 93 74 33.0
e 93 190 84.0
e 93 105 91.0
e 93 127 32.0
e 93 68 82.0
e 93 309 30.0
e 93 116 18.0
e 93 259 27.0
e 93 145 66.0
e 93 169 39.0
e 93 318 70.0
e 93 146 14.0
e 93 104 78.0
e 93 206 26.0
e 95 45 2.0
e 95 275 3.0
e 96 236 4.0
e 97 277 9.0
e 97 35 1.0
e 98 222 9.0
e 98 95 6.0
e 101 47 2.0
e 103 107 5.0
e 104 207 3.0
e 104 235 11.0
e 105 121 1.0
e 106 156 7.0
e 107 204 2.0
e 107 171 6.0
e 108 93 83.0
e 109 4 9.0
e 110 290 1.0
e 111 33 3.0
e 111 238 6.0
e 111 205 61.0
e 111 142 1.0
e 111 64 20.0
e 112 265 4.0
e 112 19 6.0
e 112 165 9.0
e 113 58 1.0
e 114 77 1.0
e 116 8 3.0
e 117 273 2.0
e 118 137 1.0
e 119 148 1.0
e 119 247 13.0
e 119 233 44.0
e 119 135 84.0
e 119 37 85.0
e 119 231 67.0
e 119 120 70.0
e 119 300 36.0
e 119 90 90.0
e 119 199 20.0
e 119 24 72.0
e 119 137 66.0
e 119 62 77.0
e 122 279 4.0
e 122 209 5.0
e 124 198 3.0
e 128 32 3.0
e 130 232 3.0
e 131 101 5.0
e 132 62 42.0
e 132 194 17.0
e 132 189 15.0
e 132 46 74.0
e 132 297 71.0
e 132 230 18.0
e 132 171 29.0
e 132 270 90.0
e 132 2 64.0
e 132 177 56.0
e 132 285 59.0
e 132 287 84.0
e 132 158 72.0
e 132 17 25.0
e 133 20 4.0
e 134 106 1.0
e 135 211 66.0
e 135 42 81.0
e 135 290 28.0
e 135 152 41.0
e 135 252 40.0
e 135 226 50.0
e 135 146 11.0
e 135 147 15.0
e 135 130 40.0
e 135 21 81.0
e 135 114 92.0
e 135 280 30.0
e 135 246 11.0
e 136 276 43.0
e 136 117 46.0
e 136 72 19.0
e 136 302 11.0
e 136 266 13.0
e 136 86 33.0
e 136 81 11.0
e 139 194 1.0
e 139 209 2.0
e 140 119 47.0
e 141 42 2.0
e 142 244 7.0
e 142 143 13.0
e 142 273 20.0
e 144 260 93.0
e 144 170 80.0
e 144 116 63.0
e 144 165 92.0
e 144 273 55.0
e 144 91 93.0
e 144 230 42.0
e 144 229 35.0
e 144 242 22.0
e 144 257 37.0
e 144 206 24.0
e 144 71 83.0
e 144 7 33.0
e 144 9 70.0
e 144 246 80.0
e 144 258 33.0
e 147 241 9.0
e 148 11 24.0
e 148 99 16.0
e 148 207 1.0
e 150 301 1.0
e 151 42 1.0
e 151 114 1.0
e 154 14 2.0
e 156 8 9.0
e 157 164 2.0
e 159 33 8.0
e 159 153 1.0
e 159 235 2.0
e 160 28 1.0
e 161 29 10.0
e 161 172 7.0
e 161 102 11.0
e 162 213 9.0
e 163 2 2.0
e 166 193 54.0
e 166 74 25.0
e 166 4 64.0
e 166 135 84.0
e 166 145 73.0
e 166 315 39.0
e 166 131 77.0
e 166 37 24.0
e 166 150 23.0
e 166 57 30.0
e 166 220 65.0
e 166 234 25.0
e 166 151 89.0
e 166 194 84.0
e 166 50 94.0
e 166 132 92.0
e 167 124 1.0
e 168 264 2.0
e 170 108 1.0
e 173 315 9.0
e 173 56 40.0
e 173 76 10.0
e 176 301 4.0
e 178 25 2.0
e 179 32 1.0
e 179 55 18.0
e 180 294 13.0
e 181 97 5.0
e 181 24 4.0
e 184 57 1.0
e 185 94 18.0
e 185 197 9.0
e 185 33 39.0
e 185 258 9.0
e 185 300 48.0
e 185 266 36.0
e 185 134 36.0
e 185 289 41.0
e 185 156 40.0
e 186 203 9.0
e 186 208 5.0
e 187 55 32.0
e 187 123 4.0
e 187 181 8.0
e 188 69 1.0
e 190 105 3.0
e 191 137 1.0
e 192 142 78.0
e 192 37 73.0
e 192 315 100.0
e 192 118 42.0
e 192 168 40.0
e 192 172 38.0
e 192 301 42.0
e 192 98 38.0
e 192 5 94.0
e 192 47 97.0
e 192 122 95.0
e 192 2 17.0
e 192 295 25.0
e 192 296 36.0
e 192 279 65.0
e 192 112 74.0
e 193 116 3.0
e 193 159 61.0
e 193 64 75.0
e 193 269 25.0
e 193 102 94.0
e 193 61 47.0
e 193 274 30.0
e 193 247 39.0
e 193 111 95.0
e 193 127 15.0
e 193 122 76.0
e 193 6 34.0
e 193 260 97.0
e 193 73 42.0
e 193 267 95.0
e 193 79 68.0
e 195 152 10.0
e 195 60 5.0
e 195 135 54.0
e 196 31 2.0
e 198 69 5.0
e 200 278 4.0
e 201 7 2.0
e 202 236 3.0
e 202 271 13.0
e 202 141 14.0
e 202 263 14.0
e 202 114 10.0
e 205 222 68.0
e 205 66 12.0
e 205 302 41.0
e 205 5 82.0
e 205 163 46.0
e 205 165 9.0
e 205 176 41.0
e 205 167 3.0
e 205 105 38.0
e 205 154 78.0
e 205 240 31.0
e 205 28 6.0
e 205 182 9.0
e 205 100 27.0
e 205 122 19.0
e 205 23 14.0
e 210 116 15.0
e 210 102 7.0
e 210 123 7.0
e 210 21 18.0
e 210 38 98.0
e 213 10 9.0
e 214 151 5.0
e 215 302 1.0
e 216 231 5.0
e 216 38 84.0
e 217 133 4.0
e 219 63 1.0
e 221 168 8.0
e 221 0 6.0
e 223 226 2.0
e 225 140 1.0
e 227 136 48.0
e 227 235 4.0
e 227 13 5.0
e 229 187 22.0
e 229 280 10.0
e 229 117 16.0
e 232 82 1.0
e 233 226 9.0
e 234 149 8.0
e 234 186 20.0
e 234 3 43.0
e 234 275 24.0
e 236 218 18.0
e 236 14 14.0
e 236 239 19.0
e 237 36 2.0
e 243 165 1.0
e 244 79 5.0
e 244 288 13.0
e 244 119 36.0
e 244 39 2.0
e 244 211 33.0
e 244 3 20.0
e 244 256 11.0
e 244 32 9.0
e 246 98 53.0
e 246 169 90.0
e 246 255 17.0
e 246 31 85.0
e 246 156 65.0
e 246 231 98.0
e 246 297 18.0
e 246 103 79.0
e 246 284 64.0
e 246 9 42.0
e 246 268 67.0
e 246 88 15.0
e 246 138 67.0
e 246 232 71.0
e 248 197 85.0
e 248 166 9.0
e 248 316 22.0
e 248 278 46.0
e 248 184 37.0
e 248 282 26.0
e 248 141 35.0
e 248 181 90.0
e 248 297 8.0
e 248 225 83.0
e 248 43 18.0
e 248 291 96.0
e 248 135 83.0
e 248 268 7.0
e 249 170 1.0
e 251 171 11.0
e 251 64 9.0
e 251 304 18.0
e 251 166 68.0
e 252 204 12.0
e 252 73 18.0
e 252 59 2.0
e 254 244 8.0
e 254 289 21.0
e 254 52 66.0
e 254 298 88.0
e 254 166 40.0
e 254 56 67.0
e 254 145 61.0
e 254 286 48.0
e 254 99 4.0
e 254 125 64.0
e 254 126 93.0
e 254 278 62.0
e 254 205 58.0
e 254 234 9.0
e 254 50 4.0
e 254 277 14.0
e 254 232 83.0
e 261 6 1.0
e 261 46 5.0
e 262 34 1.0
e 266 151 23.0
e 266 154 21.0
e 269 98 11.0
e 272 287 5.0
e 277 18 6.0
e 282 168 6.0
e 284 207 75.0
e 284 97 82.0
e 284 17 69.0
e 284 259 94.0
e 284 146 90.0
e 284 236 45.0
e 284 188 46.0
e 284 100 1.0
e 284 185 36.0
e 284 290 66.0
e 284 10 14.0
e 284 308 71.0
e 284 208 100.0
e 284 209 60.0
e 284 125 29.0
e 284 316 52.0
e 292 299 5.0
e 292 295 4.0
e 293 207 21.0
e 293 242 1.0
e 293 173 5.0
e 293 26 16.0
e 294 136 21.0
e 294 28 14.0
e 294 272 19.0
e 294 113 13.0
e 296 78 6.0
e 296 115 21.0
e 296 152 17.0
e 296 137 9.0
e 303 264 19.0
e 303 60 17.0
e 303 66 19.0
e 303 299 2.0
e 303 317 11.0
e 309 52 8.0
e 309 158 3.0
e 311 274 21.0
e 311 234 20.0
e 311 281 20.0
e 311 52 5.0
e 312 24 3.0
e 314 250 6.0
e 314 236 4.0
e 319 71 1.0
